Si
1.0
  0.0000000000  2.7150000000  2.7150000000
  2.7150000000  0.0000000000  2.7150000000
  2.7150000000  2.7150000000  0.0000000000
Si
1
Direct
  0.0000000000  0.0000000000  0.0000000000
